% The Rogo problem from 2011-07-13
% 
rows = 10;
cols = 8;
max_steps = 12;
best = 24;
problem = array2d(1..rows, 1..cols, 
[
 %1 2 3 4 5 6 7,8,
  7,W,W,W,2,W,4,W, % 1
  7,B,W,W,W,B,5,2, % 2
  W,W,2,W,4,W,W,W, % 3
  W,W,W,W,2,W,W,5, % 4
  2,W,W,B,W,5,W,W, % 5
  W,W,2,W,B,W,W,4, % 6
  4,W,W,4,W,W,W,W, % 7
  W,W,W,2,W,W,W,W, % 8
  2,5,B,W,W,W,B,5, % 9
  W,4,W,2,W,W,W,7, % 10
]);
